p cnf 50 20
x -1 3 -6 8 12 -13 -15 16 -18 -19 20 -22 -23 -25 29 -31 -33 -34 -35 36 -39 43 -45 46 50 0
x -1 2 3 4 -5 8 9 14 -15 17 18 -19 20 -22 -27 -30 32 33 35 36 -39 -40 -41 42 -45 46 -47 0
x -4 7 -8 9 -11 14 -15 -16 17 19 -24 27 -28 -30 -34 -37 -39 -40 41 -44 48 0
x 2 -3 -6 8 -9 12 13 14 15 -18 -21 -22 -23 -25 -28 29 -30 -31 32 33 34 -40 41 42 -43 -47 -48 0
x -1 3 4 5 7 -9 12 16 -17 18 20 -21 -23 -25 31 -32 33 34 36 39 40 -41 -43 44 -48 -49 0
x 3 9 -10 11 14 15 -16 17 -19 20 21 -28 29 -34 -35 -44 45 46 -48 -49 -50 0
x 5 -6 -7 -8 9 11 12 -13 14 -17 18 19 20 22 23 25 26 30 31 33 -34 35 39 -40 41 45 -46 48 50 0
x 1 -2 4 5 9 -12 -13 -14 15 16 17 18 21 25 -27 28 30 31 34 36 37 38 -39 40 42 -45 46 47 48 49 0
x 3 4 -5 -6 -7 -8 11 -12 13 -14 -17 -22 23 -24 -25 -26 27 -28 29 -31 -32 33 -34 -36 37 -38 39 -40 -41 46 47 -50 0
x -1 2 -3 9 13 17 18 -21 24 -26 -28 29 30 31 33 35 -36 -37 38 -39 40 43 44 -45 48 49 0
x -1 -2 7 8 -9 -11 14 15 18 -19 21 24 27 32 -33 -35 37 38 42 -43 -44 45 -47 -49 0
x -1 -4 5 -7 -11 14 15 -16 17 -22 24 -26 -29 -30 31 33 35 -36 -44 47 48 50 0
x -2 4 5 6 9 10 11 -12 16 -22 24 -27 28 30 -32 -34 -38 -40 43 44 -45 -46 49 0
x 1 -3 -4 5 7 9 -10 12 -13 14 16 19 22 -24 25 26 32 34 -35 -36 38 39 40 -42 43 -44 47 -49 50 0
x -4 5 -8 -10 11 14 15 -17 18 19 25 26 -29 30 33 -35 -37 -38 40 -41 43 -44 -48 50 0
x 5 6 -7 8 -15 -21 23 -24 -26 27 28 -29 -30 31 -33 35 -37 38 41 42 -43 45 49 0
x -1 -5 -8 -9 -10 -12 15 16 -17 18 -19 -20 -21 -22 23 -24 25 -27 -31 32 34 -37 39 40 -41 -43 45 47 0
x 1 -5 8 9 11 14 15 16 22 23 28 -30 -36 38 40 -45 46 49 0
x 1 -3 -5 -6 7 10 -11 -13 14 -16 -17 18 -24 25 29 -31 -36 -37 41 -42 -43 -44 45 -46 47 49 0
x 1 2 3 5 -6 -7 -10 12 13 -15 -16 -17 -20 -23 -25 -26 29 30 32 -33 35 37 -38 -39 -40 41 43 44 -45 46 -47 -50 0
g -20